sat
(:eliminated-vars              1
 :max-memory                   18.05
 :memory                       18.05
 :nlsat-irrational-assignments 3
 :nlsat-propagations           8
 :nlsat-stages                 5
 :num-allocs                   22878
 :rlimit-count                 1765
 :time                         0.00
 :total-time                   0.01)
